50, 934
41, 45
25, 30
40, 38
47, 48
42, 46
35, 30
30, 27
44, 41
27, 31
33, 30
36, 39
33, 33
49, 45
47, 49
37, 36
34, 36
22, 26
30, 31
24, 25
36, 34
27, 32
43, 40
45, 42
38, 36
38, 41
22, 26
41, 41
26, 27
32, 35
37, 35
41, 38
31, 35
47, 49
43, 44
45, 49
43, 46
40, 38
35, 34
37, 40
42, 47
23, 28
37, 35
43, 38
49, 48
46, 46
34, 38
44, 42
35, 37
35, 35
24, 27
